3 3 2
25 1 165 0 39 1 55 2 198 0 167 1 83 0 111 1 116 0 20 2 146 1 57 0 91 2 169 1 146 0 0 2 125 0 159 2 142 0 29 2 162 0 94 1 3 0 33 2 192 1 73 
25 0 152 1 11 2 117 0 191 1 192 0 54 2 111 0 9 2 29 1 51 0 61 2 166 0 162 1 176 2 125 1 94 2 95 0 109 1 47 2 57 1 175 0 190 1 48 0 113 2 45 
25 1 101 0 191 1 191 2 29 0 157 1 193 2 162 0 60 2 48 0 99 1 57 2 95 1 189 2 4 1 127 0 82 2 46 0 1 1 196 2 143 0 160 1 99 0 96 1 140 2 117 

-------------
